685683
685407
684302
684302
677835
677835
677835
677835
677835
677553
671737
671737
671737
671737
671737
666253
666253
666253
666253
666253
661362
661362
661362
657250
654681
653612
653612
653612
651253
649827
646986
645095
645095
643597
643597
643597
643597
643275
642261
636536
636536
636536
636536
634909
634362
633680
630012
624454
624454
624454
624454
624451
624451
621734
621734
620843
619264
619264
618151
613361
613361
613361
607620
607620
603070
602441
598973
598973
598973
598382
598382
598382
598382
598382
598347
597412
597412
595455
595455
595455
594396
585553
585553
585553
585553
585553
585553
582847
582847
582847
582604
582604
581709
581709
577748
574423
574423
574423
574423
574423
